Gurobi 12.0.3:   lim:time = 14400

  mip:bestbound = 1

Set parameter LogToConsole to value 1

  tech:outlev = 1

Set parameter Cuts to value 3

  cut:cuts = 3

Set parameter Presolve to value 2

  pre:solve = 2

Set parameter MIPFocus to value 2

  mip:focus = 2

Set parameter Symmetry to value 2

  mip:symmetry = 2

Set parameter InfUnbdInfo to value 1

Gurobi Optimizer version 12.0.3 build v12.0.3rc0 (win64 - Windows 10.0 (19045.2))



CPU model: 11th Gen Intel(R) Core(TM) i7-11700 @ 2.50GHz, instruction set [SSE2|AVX|AVX2|AVX512]

Thread count: 8 physical cores, 16 logical processors, using up to 16 threads



Non-default parameters:

TimeLimit  14400

MIPFocus  2

Symmetry  2

Cuts  3

InfUnbdInfo  1

Presolve  2



Optimize a model with 426 rows, 903 columns and 5160 nonzeros

Model fingerprint: 0x84b11ef7

Model has 1 quadratic objective term

Model has 6 quadratic constraints

Variable types: 37 continuous, 866 integer (0 binary)

Coefficient statistics:

  Matrix range     [1e+00, 1e+05]

  QMatrix range    [1e+00, 1e+00]

  QLMatrix range   [1e+00, 1e+01]

  Objective range  [3e+00, 1e+02]

  QObjective range [2e+00, 2e+00]

  Bounds range     [1e+00, 1e+02]

  RHS range        [1e+00, 1e+05]

  QRHS range       [1e+02, 1e+02]

Presolve removed 35 rows and 106 columns

Presolve time: 0.28s

Presolved: 991 rows, 1294 columns, 8044 nonzeros

Variable types: 64 continuous, 1230 integer (1070 binary)

Root relaxation presolve removed 33 rows and 1 columns

Root relaxation presolved: 563 rows, 1011 columns, 8013 nonzeros





Root relaxation: objective 8.941072e+01, 106 iterations, 0.02 seconds (0.01 work units)



    Nodes    |    Current Node    |     Objective Bounds      |     Work

 Expl Unexpl |  Obj  Depth IntInf | Incumbent    BestBd   Gap | It/Node Time



     0     0   89.41072    0   54          -   89.41072      -     -    0s

H    0     0                     715.0400000   91.04227  87.3%     -    0s

H    0     0                     435.7200000  145.79181  66.5%     -    0s

     0     0  152.81030    0   45  435.72000  152.81030  64.9%     -    0s

     0     0  152.81030    0   48  435.72000  152.81030  64.9%     -    0s

     0     0  152.81030    0   50  435.72000  152.81030  64.9%     -    0s

H    0     0                     433.8200000  152.81600  64.8%     -    0s

H    0     0                     417.7200000  152.81600  63.4%     -    0s

H    0     0                     413.0700000  152.81600  63.0%     -    0s

     0     0  152.83403    0   58  413.07000  152.83403  63.0%     -    0s

H    0     0                     405.6700000  182.27632  55.1%     -    0s

     0     0  182.27632    0   72  405.67000  182.27632  55.1%     -    0s

     0     0  183.04900    0   66  405.67000  183.04900  54.9%     -    0s

H    0     0                     369.7000000  183.04900  50.5%     -    0s

H    0     0                     365.1800000  183.04900  49.9%     -    0s

H    0     0                     328.2300000  189.09750  42.4%     -    0s

     0     0  189.09750    0   63  328.23000  189.09750  42.4%     -    0s

     0     0  191.13900    0   75  328.23000  191.13900  41.8%     -    0s

H    0     0                     326.7800000  191.13900  41.5%     -    0s

     0     0  215.05651    0   89  326.78000  215.05651  34.2%     -    1s

H    0     0                     326.5500000  216.16000  33.8%     -    1s

     0     0  216.16000    0   84  326.55000  216.16000  33.8%     -    1s

     0     0  217.78000    0   28  326.55000  217.78000  33.3%     -    1s

     0     0  217.78000    0   28  326.55000  217.78000  33.3%     -    1s

     0     0  217.78387    0   32  326.55000  217.78387  33.3%     -    1s

     0     0  217.78387    0   32  326.55000  217.78387  33.3%     -    1s

     0     2  217.78387    0   32  326.55000  217.78387  33.3%     -    1s

H   50    54                     326.0100000  217.78573  33.2%  30.0    1s

H   60    54                     324.1600000  217.78573  32.8%  28.7    1s

H  111    77                     323.1600000  217.78573  32.6%  22.8    1s

  3578  1218  282.92905   35   52  323.16000  266.58571  17.5%  20.9    5s

  3600  1237  269.09270   26   69  323.16000  269.09270  16.7%  22.1   10s

  9257  1068  289.37207   39   20  323.16000  289.22583  10.5%  20.2   15s

 18187   917  321.99455   49   12  323.16000  302.84851  6.29%  18.9   20s



Cutting planes:

  Learned: 5

  Gomory: 17

  Lift-and-project: 7

  Cover: 35

  Implied bound: 41

  Projected implied bound: 6

  Clique: 35

  MIR: 28

  Mixing: 12

  StrongCG: 14

  Flow cover: 167

  Inf proof: 16

  Zero half: 115

  RLT: 10

  Relax-and-lift: 70



Explored 23386 nodes (421985 simplex iterations) in 23.40 seconds (10.67 work units)

Thread count was 16 (of 16 available processors)



Solution count 10: 323.16 324.16 326.01 ... 413.07



Optimal solution found (tolerance 1.00e-04)

Best objective 3.231600000000e+02, best bound 3.231600000000e+02, gap 0.0000%



AMPL MP initial flat model has 903 variables (0 integer, 866 binary);

Objectives: 1 quadratic; 

Constraints:  426 linear; 6 quadratic;



AMPL MP final model has 903 variables (0 integer, 866 binary);

Objectives: 1 quadratic; 

Constraints:  426 linear; 6 quadratic;





-----RESULTS INFO-----
running_time:  23.453
TC.best_bound:  323.16
TC:  323.15999999999997
MIP Gap (%):  1.758986844312663e-14
=== Vehicle Routes ===
Vehicle 1: 0 → 1
Vehicle 1: 1 → 9
Vehicle 1: 3 → 19
Vehicle 1: 9 → 18
Vehicle 1: 12 → 3
Vehicle 1: 18 → 12
Vehicle 2: 0 → 14
Vehicle 2: 2 → 19
Vehicle 2: 14 → 2
Vehicle 3: 0 → 19
Vehicle 4: 0 → 19

=== Full Vehicle Routes ===
Vehicle 1: 0 → 1 → 9 → 18 → 12 → 3 → 0 (70<100)
Vehicle 2: 0 → 14 → 2 → 0 (83<100)
Vehicle 3: 0 → 0 (0<100)
Vehicle 4: 0 → 0 (0<100)
Arc used by MRT line: y variables:
MRT used: 12 → 13
Customer assigment to PL: u variables:
4 14
5 14
6 14
7 14
8 18
10 13
11 14
Node is served by regular vehicle: g variables:
1
2
3
9
18
12
14
Customer assigment to Home delivery: gm variables:
1
2
3
9
Node total demands: ntd variables:
1 13 1
2 13 1
3 12 1
8 0 0
9 10 1
10 0 0
11 0 0
18 23 1
12 12 1
13 0 0
14 70 1
15 0 0
16 0 0
17 0 0
Customer's demand delivered to PL: l variables:
4
5
6
7
8
10
11
Lockers load <= capacity:
23 <= 79
0 <= 81
12 <= 83
70 <= 100
0 <= 99
0 <= 94
0 <= 86
